p wcnf 198 297 298 
1 88 169 0 
1 -180 136 0 
1 141 185 0 
1 144 -61 0 
1 -89 55 0 
1 -159 156 0 
1 -197 150 0 
1 -143 -88 0 
1 79 158 0 
1 5 185 0 
1 -77 180 0 
1 -129 -172 0 
1 154 22 0 
1 163 69 0 
1 28 -91 0 
1 -141 -33 0 
1 -41 105 0 
1 111 -49 0 
1 184 -108 0 
1 47 -154 0 
1 128 -157 0 
1 88 -172 0 
1 96 -48 0 
1 100 116 0 
1 116 48 0 
1 -148 62 0 
1 148 -105 0 
1 -30 -61 0 
1 -113 -21 0 
1 -191 169 0 
1 -114 -158 0 
1 -198 -29 0 
1 -70 -137 0 
1 -145 15 0 
1 -97 -74 0 
1 -80 -54 0 
1 -106 108 0 
1 162 180 0 
1 160 178 0 
1 198 61 0 
1 133 -147 0 
1 103 -49 0 
1 -177 31 0 
1 168 -3 0 
1 -187 -11 0 
1 107 -127 0 
1 -51 -178 0 
1 30 -155 0 
1 -182 150 0 
1 147 177 0 
1 -61 -54 0 
1 -133 44 0 
1 4 39 0 
1 -188 -173 0 
1 -120 150 0 
1 -179 54 0 
1 -115 -191 0 
1 128 180 0 
1 -123 182 0 
1 -174 -180 0 
1 -34 -35 0 
1 -46 -1 0 
1 -94 -52 0 
1 -13 -49 0 
1 -68 -120 0 
1 173 51 0 
1 -159 188 0 
1 -115 -192 0 
1 7 41 0 
1 170 28 0 
1 196 -156 0 
1 126 159 0 
1 -172 55 0 
1 35 -126 0 
1 -48 139 0 
1 113 -151 0 
1 65 130 0 
1 93 7 0 
1 -188 131 0 
1 -197 -72 0 
1 159 128 0 
1 -78 162 0 
1 106 24 0 
1 -148 128 0 
1 -6 96 0 
1 3 18 0 
1 -83 -102 0 
1 -72 148 0 
1 -177 58 0 
1 130 95 0 
1 -194 152 0 
1 -18 9 0 
1 62 5 0 
1 197 33 0 
1 -83 -161 0 
1 15 163 0 
1 104 79 0 
1 -95 -43 0 
1 -24 177 0 
1 -121 -45 0 
1 12 127 0 
1 -138 188 0 
1 47 155 0 
1 -70 -86 0 
1 -18 157 0 
1 5 -86 0 
1 -181 137 0 
1 -93 -69 0 
1 124 -69 0 
1 -150 127 0 
1 70 -193 0 
1 -196 35 0 
1 -87 -137 0 
1 6 59 0 
1 -111 -44 0 
1 35 -195 0 
1 -40 93 0 
1 -158 170 0 
1 -134 82 0 
1 54 -92 0 
1 100 -21 0 
1 74 -1 0 
1 143 75 0 
1 56 72 0 
1 118 71 0 
1 140 -28 0 
1 124 150 0 
1 -54 175 0 
1 130 -19 0 
1 -115 182 0 
1 79 169 0 
1 11 -58 0 
1 37 77 0 
1 106 129 0 
1 6 -69 0 
1 -33 -159 0 
1 53 -35 0 
1 -154 -36 0 
1 55 44 0 
1 13 77 0 
1 46 92 0 
1 -183 -152 0 
1 101 141 0 
1 21 -79 0 
1 -73 182 0 
1 193 103 0 
1 -17 -86 0 
1 -55 171 0 
1 -50 134 0 
1 36 -115 0 
1 42 34 0 
1 -56 -145 0 
1 -97 121 0 
1 42 -71 0 
1 28 12 0 
1 26 -61 0 
1 -195 155 0 
1 170 94 0 
1 -42 -95 0 
1 177 12 0 
1 184 -110 0 
1 172 179 0 
1 19 122 0 
1 153 90 0 
1 72 -142 0 
1 -11 -175 0 
1 118 -20 0 
1 -190 46 0 
1 65 -139 0 
1 -97 44 0 
1 147 -48 0 
1 161 33 0 
1 -127 -147 0 
1 -19 109 0 
1 109 60 0 
1 28 155 0 
1 89 -131 0 
1 -182 36 0 
1 168 5 0 
1 -142 -100 0 
1 180 -116 0 
1 93 -169 0 
1 117 7 0 
1 -69 163 0 
1 184 19 0 
1 90 -156 0 
1 -153 -13 0 
1 24 61 0 
1 -55 -180 0 
1 46 -86 0 
1 -108 81 0 
1 148 -33 0 
1 111 -90 0 
1 159 144 0 
1 -174 -87 0 
1 187 -173 0 
1 -135 -72 0 
1 -103 70 0 
1 -7 -12 0 
1 187 -163 0 
1 -69 101 0 
1 133 171 0 
1 -45 20 0 
1 64 157 0 
1 108 109 0 
1 -148 54 0 
1 -141 168 0 
1 -112 196 0 
1 195 -73 0 
1 83 182 0 
1 -44 184 0 
1 -120 -16 0 
1 -33 16 0 
1 56 117 0 
1 -10 -106 0 
1 75 -175 0 
1 -59 20 0 
1 165 45 0 
1 -95 -14 0 
1 -118 37 0 
1 -58 -171 0 
1 1 67 0 
1 47 31 0 
1 -11 -144 0 
1 55 128 0 
1 -187 -125 0 
1 -37 9 0 
1 14 -190 0 
1 60 5 0 
1 -90 -194 0 
1 172 183 0 
1 -185 -61 0 
1 49 127 0 
1 109 -126 0 
1 88 106 0 
1 -36 69 0 
1 92 25 0 
1 50 -115 0 
1 67 -159 0 
1 135 44 0 
1 -98 138 0 
1 -156 25 0 
1 83 70 0 
1 134 -3 0 
1 172 -160 0 
1 129 -61 0 
1 126 -35 0 
1 196 -104 0 
1 25 -106 0 
1 46 153 0 
1 -84 -41 0 
1 -71 123 0 
1 -168 122 0 
1 26 -196 0 
1 -30 -22 0 
1 -57 -121 0 
1 41 112 0 
1 -123 73 0 
1 -96 122 0 
1 -119 130 0 
1 157 -160 0 
1 73 -96 0 
1 38 -58 0 
1 -55 -134 0 
1 -93 33 0 
1 133 -152 0 
1 160 -78 0 
1 78 80 0 
1 183 -23 0 
1 111 55 0 
1 142 -172 0 
1 174 98 0 
1 -172 156 0 
1 -161 109 0 
1 -191 -58 0 
1 103 69 0 
1 106 -182 0 
1 -152 182 0 
1 105 198 0 
1 -37 -196 0 
1 -169 -182 0 
1 -86 54 0 
1 -114 -58 0 
1 82 51 0 
1 116 -87 0 
1 63 44 0 
1 38 196 0 
1 115 114 0 
1 43 -175 0 
1 -11 14 0 
1 170 -103 0 
1 -177 -152 0 
1 137 -109 0 
1 72 -141 0 
1 104 -141 0 
1 72 -14 0 
1 -55 4 0 
